(declare-const a Real)
(declare-const b Real)
(declare-const c Real)
(assert (= (* a b c) 1))
(assert (> a 0))
(assert (> b 0))
(assert (> c 0))
(assert (not (<= (+ (* (/ -1 1949459795082654027776) (pow (+ (* 5422792 a) (* 7069384 b)) 4)) (* -14155776 (pow a (pow 3 -1)) (pow b (/ 11 3))) (* -7077888 (pow a (/ 10 3)) (pow b (/ 2 3))) (* 832464 (pow a 2) (pow b 2)) (* 7722208 b (pow a 3)) (* 25171168 a (pow b 3))) 0)))
(check-sat)
(get-model)
(exit)